17	4
15	17	17	17	
0	0	0	0	0	3	2	3	4	
6	8	4	7	7	3	5	17	17	
1	5	1	5	1	3	7	12	16	
8	1	4	1	3	2	8	9	
8	6	2	1	9	2	6	10	
225	1	2	8	6	3	7	13	17	
200	3	5	1	7	1	17	
150	9	4	9	6	1	14	
125	3	3	3	4	3	11	17	17	
25	9	5	3	1	3	15	17	17	
200	1	10	4	6	1	17	
100	2	3	7	10	1	17	
3	2	1	10	6	1	17	
1	3	9	1	3	2	17	17	
3	5	2	6	6	2	17	17	
1	3	10	10	8	1	17	
0	0	0	0	0	0	
